c Result of efficient AIG-to-CNF conversion using package CNF
p cnf 93 315
-2 -3 -48 0
-2 3 48 0
2 3 -48 0
2 -3 48 0
3 4 -22 0
3 -4 22 0
-3 -4 -22 0
-3 4 22 0
4 -5 -7 -8 0
4 -5 -6 -8 0
4 -6 -7 -8 0
-4 5 7 0
-4 6 7 0
-4 8 0
-4 5 6 0
5 -79 -80 0
-5 79 0
-5 80 0
6 -81 -82 0
-6 81 0
-6 82 0
7 -84 -85 0
-7 84 0
-7 85 0
-8 -9 -13 0
-8 9 13 0
8 9 -13 0
8 -9 13 0
-9 10 11 0
-9 -10 -11 0
9 -10 11 0
9 10 -11 0
10 82 -87 0
10 81 -87 0
-10 87 0
-10 -81 -82 0
-11 87 12 0
-11 -87 -12 0
11 -87 12 0
11 87 -12 0
-12 82 87 0
-12 -82 88 0
-12 81 82 0
12 -82 -88 0
12 -81 82 -87 0
13 -14 18 0
13 14 -18 0
-13 14 18 0
-13 -14 -18 0
-14 15 16 0
-14 -15 -16 0
14 -15 16 0
14 15 -16 0
15 85 -89 0
15 84 -89 0
-15 89 0
-15 -84 -85 0
-16 89 17 0
-16 -89 -17 0
16 -89 17 0
16 89 -17 0
-17 -84 90 0
-17 84 89 0
-17 84 85 0
17 -84 -90 0
17 84 -85 -89 0
-18 19 20 0
-18 -19 -20 0
18 -19 20 0
18 19 -20 0
19 80 -83 0
19 79 -83 0
-19 83 0
-19 -79 -80 0
-20 83 21 0
-20 -83 -21 0
20 -83 21 0
20 83 -21 0
-21 -79 86 0
-21 79 83 0
-21 79 80 0
21 -79 -86 0
21 79 -80 -83 0
22 -23 25 0
22 23 -25 0
-22 23 25 0
-22 -23 -25 0
-23 24 13 0
-23 9 24 0
23 -24 0
23 -9 -13 0
24 -14 -18 0
-24 14 0
-24 18 0
-25 -26 -33 0
-25 26 33 0
25 26 -33 0
25 -26 33 0
-26 27 29 0
-26 -27 -29 0
26 -27 29 0
26 27 -29 0
27 81 -87 28 0
-27 -81 0
-27 87 0
-27 -28 0
28 -82 -88 0
-28 82 0
-28 88 0
-29 30 31 0
-29 -30 -31 0
29 -30 31 0
29 30 -31 0
30 -81 87 -92 0
30 -81 -87 92 0
-30 81 0
-30 -87 -92 0
-30 87 92 0
-31 87 32 0
-31 -87 -32 0
31 -87 32 0
31 87 -32 0
-32 -82 91 0
-32 82 88 0
-32 82 87 0
32 -82 -91 0
32 82 -87 -88 0
33 -34 41 0
33 34 -41 0
-33 34 41 0
-33 -34 -41 0
-34 35 37 0
-34 -35 -37 0
34 -35 37 0
34 35 -37 0
35 85 -89 36 0
-35 -85 0
-35 89 0
-35 -36 0
36 -84 -90 0
-36 84 0
-36 90 0
-37 38 39 0
-37 -38 -39 0
37 -38 39 0
37 38 -39 0
38 78 -85 -89 0
38 -78 -85 89 0
-38 85 0
-38 -78 -89 0
-38 78 89 0
-39 89 40 0
-39 -89 -40 0
39 -89 40 0
39 89 -40 0
-40 84 90 0
-40 77 -84 0
-40 84 89 0
40 -77 -84 0
40 84 -89 -90 0
-41 42 44 0
-41 -42 -44 0
41 -42 44 0
41 42 -44 0
42 80 -83 43 0
-42 -80 0
-42 83 0
-42 -43 0
43 -79 -86 0
-43 79 0
-43 86 0
-44 45 46 0
-44 -45 -46 0
44 -45 46 0
44 45 -46 0
45 76 -80 -83 0
45 -76 -80 83 0
-45 80 0
-45 -76 -83 0
-45 76 83 0
-46 83 47 0
-46 -83 -47 0
46 -83 47 0
46 83 -47 0
-47 79 86 0
-47 75 -79 0
-47 79 83 0
47 -75 -79 0
47 79 -83 -86 0
48 49 -63 0
48 -49 63 0
-48 -49 -63 0
-48 49 63 0
49 -50 56 0
49 50 -56 0
-49 50 56 0
-49 -50 -56 0
50 -51 54 -55 0
50 -52 54 55 0
50 -51 52 -55 0
50 52 -54 55 0
-50 51 -55 0
-50 -52 -54 0
-50 52 54 55 0
-51 -82 91 0
-51 82 88 0
51 82 -88 0
51 -82 -91 0
-52 87 53 0
-52 -87 -53 0
-52 82 -87 -88 0
52 87 -53 0
52 -82 -87 53 0
52 -87 88 53 0
53 -82 -91 0
-53 82 0
-53 91 0
54 -81 87 -92 0
54 -81 -87 92 0
-54 81 0
-54 -87 -92 0
-54 87 92 0
55 81 -87 28 0
-55 -81 0
-55 87 0
-55 -28 0
-56 -57 -60 0
-56 57 60 0
56 57 -60 0
56 -57 60 0
-57 58 59 0
-57 -58 -59 0
57 -58 59 0
57 58 -59 0
-58 78 89 0
-58 85 89 0
-58 85 -36 0
-58 -78 -85 -89 0
58 78 -85 -89 0
58 85 -89 36 0
58 -78 -85 89 0
-59 77 89 0
-59 84 89 0
-59 84 -90 0
-59 -77 -84 -89 0
59 77 -84 -89 0
59 84 -89 90 0
59 -77 -84 89 0
60 -61 62 0
60 61 -62 0
-60 61 62 0
-60 -61 -62 0
-61 76 83 0
-61 80 83 0
-61 80 -43 0
-61 -76 -80 -83 0
61 76 -80 -83 0
61 80 -83 43 0
61 -76 -80 83 0
-62 75 83 0
-62 79 83 0
-62 79 -86 0
-62 -75 -79 -83 0
62 75 -79 -83 0
62 79 -83 86 0
62 -75 -79 83 0
63 -72 73 0
63 72 -73 0
63 -64 72 0
-63 -72 -73 0
-63 64 72 73 0
64 -65 -70 0
-64 65 0
-64 70 0
-65 66 68 0
-65 -66 -68 0
65 -66 68 0
65 66 -68 0
66 43 -67 0
66 -43 67 0
-66 -43 -67 0
-66 43 67 0
67 -80 -83 0
-67 80 0
-67 83 0
-68 -36 -69 0
-68 36 69 0
68 36 -69 0
68 -36 69 0
69 -85 -89 0
-69 85 0
-69 89 0
70 28 -71 0
70 -28 71 0
-70 -28 -71 0
-70 28 71 0
71 -81 -87 0
-71 81 0
-71 87 0
72 -66 -68 0
-72 66 0
-72 68 0
73 -5 -7 -74 0
73 -5 -6 -74 0
73 -6 -7 -74 0
-73 5 7 0
-73 6 7 0
-73 74 0
-73 5 6 0
-74 -65 -70 0
-74 65 70 0
74 65 -70 0
74 -65 70 0
-93 0
2 0

